907023
92,48,55,68,74,5,40,17,9,76,29,95,20,19,8,32,56,46,94,24,77,50,78,28,39,93,25,11,16,18,58,89,23,42,51,64,53,97,22,10,27,45,33,70,21,72,83,91,38,13,80,3,65,6,85,44,86,75,37,66,81,57,60,15,14,82,87,49,35,98,67,71,54,43,90,52,7,88,84,63,4,2,1,26,34,41,96,79,0,47,36,69,73,31,59,30,61,62,12,92